; Copyright (c) 2026 The RIINA Authors. All rights reserved.
; Auto-generated from 02_FORMAL/coq/domains/InjectionPrevention.v (26 validations)
; Generated by scripts/generate-full-stack.py
;
; Translation Validation for InjectionPrevention
; Layer 9: Verifies compiler backend preserves formal semantics.
; Each assertion checks source IR ≡ target code for a proven property.

(set-logic QF_LIA)
(set-option :produce-models true)

; IR node representation
(declare-sort IRNode 0)
(declare-sort TargetNode 0)

; propagate_taint: source semantics (matches Coq)
(declare-fun source_propagate_taint () Bool)
(declare-fun target_propagate_taint () Bool)
(assert (= source_propagate_taint target_propagate_taint))

; tainted_concat: source semantics (matches Coq)
(declare-fun source_tainted_concat () Bool)
(declare-fun target_tainted_concat () Bool)
(assert (= source_tainted_concat target_tainted_concat))

; secure_xml_config: source semantics (matches Coq)
(declare-fun source_secure_xml_config () Bool)
(declare-fun target_secure_xml_config () Bool)
(assert (= source_secure_xml_config target_secure_xml_config))

; contains_newline: source semantics (matches Coq)
(declare-fun source_contains_newline () Bool)
(declare-fun target_contains_newline () Bool)
(assert (= source_contains_newline target_contains_newline))

; secure_pdf: source semantics (matches Coq)
(declare-fun source_secure_pdf () Bool)
(declare-fun target_secure_pdf () Bool)
(assert (= source_secure_pdf target_secure_pdf))

; inj_001_sql_injection_impossible: translation preserves property (matches Coq: Theorem)
(declare-fun source_inj_001_sql_injection_impossible () Bool)
(declare-fun target_inj_001_sql_injection_impossible () Bool)
(assert (= source_inj_001_sql_injection_impossible target_inj_001_sql_injection_impossible))

; inj_002_command_injection_impossible: translation preserves property (matches Coq: Theorem)
(declare-fun source_inj_002_command_injection_impossible () Bool)
(declare-fun target_inj_002_command_injection_impossible () Bool)
(assert (= source_inj_002_command_injection_impossible target_inj_002_command_injection_impossible))

; inj_003_ldap_injection_impossible: translation preserves property (matches Coq: Theorem)
(declare-fun source_inj_003_ldap_injection_impossible () Bool)
(declare-fun target_inj_003_ldap_injection_impossible () Bool)
(assert (= source_inj_003_ldap_injection_impossible target_inj_003_ldap_injection_impossible))

; inj_004_xpath_injection_impossible: translation preserves property (matches Coq: Theorem)
(declare-fun source_inj_004_xpath_injection_impossible () Bool)
(declare-fun target_inj_004_xpath_injection_impossible () Bool)
(assert (= source_inj_004_xpath_injection_impossible target_inj_004_xpath_injection_impossible))

; inj_005_xxe_impossible: translation preserves property (matches Coq: Theorem)
(declare-fun source_inj_005_xxe_impossible () Bool)
(declare-fun target_inj_005_xxe_impossible () Bool)
(assert (= source_inj_005_xxe_impossible target_inj_005_xxe_impossible))

; inj_006_header_injection_impossible: translation preserves property (matches Coq: Theorem)
(declare-fun source_inj_006_header_injection_impossible () Bool)
(declare-fun target_inj_006_header_injection_impossible () Bool)
(assert (= source_inj_006_header_injection_impossible target_inj_006_header_injection_impossible))

; inj_007_template_injection_impossible: translation preserves property (matches Coq: Theorem)
(declare-fun source_inj_007_template_injection_impossible () Bool)
(declare-fun target_inj_007_template_injection_impossible () Bool)
(assert (= source_inj_007_template_injection_impossible target_inj_007_template_injection_impossible))

; inj_008_code_injection_impossible: translation preserves property (matches Coq: Theorem)
(declare-fun source_inj_008_code_injection_impossible () Bool)
(declare-fun target_inj_008_code_injection_impossible () Bool)
(assert (= source_inj_008_code_injection_impossible target_inj_008_code_injection_impossible))

; inj_009_expression_language_safe: translation preserves property (matches Coq: Theorem)
(declare-fun source_inj_009_expression_language_safe () Bool)
(declare-fun target_inj_009_expression_language_safe () Bool)
(assert (= source_inj_009_expression_language_safe target_inj_009_expression_language_safe))

; inj_010_log_injection_impossible: translation preserves property (matches Coq: Theorem)
(declare-fun source_inj_010_log_injection_impossible () Bool)
(declare-fun target_inj_010_log_injection_impossible () Bool)
(assert (= source_inj_010_log_injection_impossible target_inj_010_log_injection_impossible))

; inj_011_email_header_safe: translation preserves property (matches Coq: Theorem)
(declare-fun source_inj_011_email_header_safe () Bool)
(declare-fun target_inj_011_email_header_safe () Bool)
(assert (= source_inj_011_email_header_safe target_inj_011_email_header_safe))

; csv_escape_safe_helper: translation preserves property (matches Coq: Lemma)
(declare-fun source_csv_escape_safe_helper () Bool)
(declare-fun target_csv_escape_safe_helper () Bool)
(assert (= source_csv_escape_safe_helper target_csv_escape_safe_helper))

; inj_012_csv_injection_impossible: translation preserves property (matches Coq: Theorem)
(declare-fun source_inj_012_csv_injection_impossible () Bool)
(declare-fun target_inj_012_csv_injection_impossible () Bool)
(assert (= source_inj_012_csv_injection_impossible target_inj_012_csv_injection_impossible))

; inj_013_pdf_injection_impossible: translation preserves property (matches Coq: Theorem)
(declare-fun source_inj_013_pdf_injection_impossible () Bool)
(declare-fun target_inj_013_pdf_injection_impossible () Bool)
(assert (= source_inj_013_pdf_injection_impossible target_inj_013_pdf_injection_impossible))

; inj_014_crlf_injection_impossible: translation preserves property (matches Coq: Theorem)
(declare-fun source_inj_014_crlf_injection_impossible () Bool)
(declare-fun target_inj_014_crlf_injection_impossible () Bool)
(assert (= source_inj_014_crlf_injection_impossible target_inj_014_crlf_injection_impossible))

; inj_015_null_byte_injection_impossible: translation preserves property (matches Coq: Theorem)
(declare-fun source_inj_015_null_byte_injection_impossible () Bool)
(declare-fun target_inj_015_null_byte_injection_impossible () Bool)
(assert (= source_inj_015_null_byte_injection_impossible target_inj_015_null_byte_injection_impossible))

; inj_016_untrusted_propagation: translation preserves property (matches Coq: Theorem)
(declare-fun source_inj_016_untrusted_propagation () Bool)
(declare-fun target_inj_016_untrusted_propagation () Bool)
(assert (= source_inj_016_untrusted_propagation target_inj_016_untrusted_propagation))

; inj_017_untrusted_propagation_right: translation preserves property (matches Coq: Theorem)
(declare-fun source_inj_017_untrusted_propagation_right () Bool)
(declare-fun target_inj_017_untrusted_propagation_right () Bool)
(assert (= source_inj_017_untrusted_propagation_right target_inj_017_untrusted_propagation_right))

; inj_018_trusted_propagation: translation preserves property (matches Coq: Theorem)
(declare-fun source_inj_018_trusted_propagation () Bool)
(declare-fun target_inj_018_trusted_propagation () Bool)
(assert (= source_inj_018_trusted_propagation target_inj_018_trusted_propagation))

; inj_019_sanitized_propagation: translation preserves property (matches Coq: Theorem)
(declare-fun source_inj_019_sanitized_propagation () Bool)
(declare-fun target_inj_019_sanitized_propagation () Bool)
(assert (= source_inj_019_sanitized_propagation target_inj_019_sanitized_propagation))

; inj_020_empty_sql_safe: translation preserves property (matches Coq: Theorem)
(declare-fun source_inj_020_empty_sql_safe () Bool)
(declare-fun target_inj_020_empty_sql_safe () Bool)
(assert (= source_inj_020_empty_sql_safe target_inj_020_empty_sql_safe))

; inj_021_parameterized_always_safe: translation preserves property (matches Coq: Theorem)
(declare-fun source_inj_021_parameterized_always_safe () Bool)
(declare-fun target_inj_021_parameterized_always_safe () Bool)
(assert (= source_inj_021_parameterized_always_safe target_inj_021_parameterized_always_safe))

; inj_022_trusted_propagation: translation preserves property (matches Coq: Theorem)
(declare-fun source_inj_022_trusted_propagation () Bool)
(declare-fun target_inj_022_trusted_propagation () Bool)
(assert (= source_inj_022_trusted_propagation target_inj_022_trusted_propagation))

; inj_023_taint_propagation_comm: translation preserves property (matches Coq: Theorem)
(declare-fun source_inj_023_taint_propagation_comm () Bool)
(declare-fun target_inj_023_taint_propagation_comm () Bool)
(assert (= source_inj_023_taint_propagation_comm target_inj_023_taint_propagation_comm))

; inj_024_trusted_propagation: translation preserves property (matches Coq: Theorem)
(declare-fun source_inj_024_trusted_propagation () Bool)
(declare-fun target_inj_024_trusted_propagation () Bool)
(assert (= source_inj_024_trusted_propagation target_inj_024_trusted_propagation))

; inj_025_untrusted_propagation: translation preserves property (matches Coq: Theorem)
(declare-fun source_inj_025_untrusted_propagation () Bool)
(declare-fun target_inj_025_untrusted_propagation () Bool)
(assert (= source_inj_025_untrusted_propagation target_inj_025_untrusted_propagation))

; Verify all translation validations are satisfiable
(check-sat)
(exit)
